Merged structure                        
   1.0000000000000000     
    16.9715995789000011    0.0000000000000000    0.0000000000000000
     0.0001175303000000   16.9738006587999983    0.0000000000000000
     0.0369529282000000   -0.0122952988000000   42.4329807856000016
   C    N    Zn   H    O 
    97    48    12   132     4
Selective dynamics
Direct
  0.5110230049049400  0.5110816881381386  0.9025395824961818   T   T   T
  0.3800808782392088  0.0049430088899837  0.5145184313899468   T   T   T
  0.3730997000035467  0.8923956655827524  0.5392929914140815   T   T   T
  0.4080129284877868  0.0840591505434417  0.5039749134394698   T   T   T
  0.0073599597573235  0.6227799516606041  0.4168799691301217   F   F   F
  0.8972799300410514  0.6314799201349430  0.3905000182222196   F   F   F
  0.0853199627029895  0.5942500104468422  0.4284099882553889   F   F   F
  0.6222482173128563  0.9917058165372640  0.5151151724820393   T   T   T
  0.6293840752221554  0.1026550250556043  0.5410276290936079   T   T   T
  0.5944333459024937  0.9128508099410595  0.5042268485014787   T   T   T
  0.9925999012119178  0.3769699611743889  0.4168199905485324   F   F   F
  0.1027399561099998  0.3682999651021106  0.3904099741119751   F   F   F
  0.9146599582353261  0.4059199739031527  0.4282699870136639   F   F   F
  0.3772399743315162  0.9926199772500084  0.4168799691301217   F   F   F
  0.3683299638752189  0.1025799716555724  0.3903899811728877   F   F   F
  0.4057799438049088  0.9146599701926306  0.4284299811944692   F   F   F
  0.9908144729704161  0.6207895358829268  0.5146118401693806   T   T   T
  0.1022454818824661  0.6258447381473242  0.5402275440315651   T   T   T
  0.9116815162585296  0.5940857756306617  0.5035993537157699   T   T   T
  0.6229899491554818  0.0074199658556893  0.4168199905485324   F   F   F
  0.6319400443856011  0.8974099880819537  0.3903399988251834   F   F   F
  0.5940099679486153  0.0853199664465905  0.4282800089351042   F   F   F
  0.0040648871324688  0.3785634502506339  0.5147971229775415   T   T   T
  0.8916210556405461  0.3708589651476301  0.5396564446837101   T   T   T
  0.0829857567678443  0.4072763321389431  0.5043452094764189   T   T   T
  0.6247839727322781  0.3707888780988479  0.6702304419306060   T   T   T
  0.6806189633609380  0.3727441859216382  0.6239076559687360   T   T   T
  0.6041381915864776  0.3924262683460027  0.7032726744630268   T   T   T
  0.3779763264919834  0.3785303517363210  0.6639934872628477   T   T   T
  0.3589628146091470  0.3039660489329498  0.7052003947746190   T   T   T
  0.4132628023925338  0.4117089972954399  0.6347074906747093   T   T   T
  0.3707407233263987  0.6282032720409114  0.6701182911854885   T   T   T
  0.3175876371411298  0.6251343171832302  0.6233052128374337   T   T   T
  0.3903642001982769  0.6086789350595553  0.7034525333747235   T   T   T
  0.6185442762436227  0.6200041286293929  0.6654845420767298   T   T   T
  0.6307942762038717  0.6883563672243228  0.7088225748422087   T   T   T
  0.5879506360707979  0.5906156380883960  0.6347327896934666   T   T   T
  0.6877469501518333  0.6301301408153436  0.7086645120539439   T   T   T
  0.6234643324631901  0.3149312703834755  0.6239082008566267   T   T   T
  0.3020050314219053  0.3625009033498146  0.7050259079231942   T   T   T
  0.3758573300752457  0.6817737620997920  0.6234207757020099   T   T   T
  0.8973398891103912  0.6888699592377989  0.4133700222151830   F   F   F
  0.8922436182826563  0.3143946108373250  0.5163943473056249   T   T   T
  0.3109499815632546  0.1025399655101111  0.4132800033211694   F   F   F
  0.1041385930488401  0.6821142280653678  0.5169189796684605   T   T   T
  0.6891099606089952  0.8973499892215102  0.4132700070872986   F   F   F
  0.1027899576628499  0.3110999764478422  0.4133499531560645   F   F   F
  0.3158527305063937  0.8931619051814579  0.5163715398033678   T   T   T
  0.6854290292450602  0.1040011354872475  0.5176022604612626   T   T   T
  0.8770800533103440  0.5073599698605733  0.3151400166197647   F   F   F
  0.8682299542956002  0.3972499668160339  0.3415099965100197   F   F   F
  0.9060200033164065  0.5852999888273516  0.3037199838756948   F   F   F
  0.5059457389053127  0.1212263086291625  0.6174468153884768   T   T   T
  0.3963622786954909  0.1297844019648565  0.5904829486405966   T   T   T
  0.5825868042849067  0.0915771155794623  0.6298897397728935   T   T   T
  0.1227199838406605  0.4925899924601822  0.3151199984644393   F   F   F
  0.1317299673950032  0.6024999741883050  0.3416499975160789   F   F   F
  0.0938499720925137  0.4146299771453172  0.3036899947027294   F   F   F
  0.4926711591915114  0.8766052301370044  0.6189640373218518   T   T   T
  0.6036529723461270  0.8652638276394103  0.5929859718616080   T   T   T
  0.4147775167495821  0.9067498670920080  0.6299654290295876   T   T   T
  0.8760499836621517  0.4924229502017144  0.6191807331270344   T   T   T
  0.8599396247530180  0.5994741694245848  0.5910838469317889   T   T   T
  0.9088175957749942  0.4169120848286957  0.6315055516609482   T   T   T
  0.4926499037667043  0.1229199829316414  0.3151499876374046   F   F   F
  0.6027599173849865  0.1316699713045182  0.3415200184314600   F   F   F
  0.4147199668806323  0.0943099802347973  0.3036099977301632   F   F   F
  0.1216893482332082  0.5072919156494673  0.6169074636646638   T   T   T
  0.1303348200669726  0.3966538405666919  0.5906065997497920   T   T   T
  0.0919970066522091  0.5841474443541920  0.6291677355362687   T   T   T
  0.5074300016483875  0.8770700130437703  0.3151899989674689   F   F   F
  0.3973799503400457  0.8683699612740554  0.3416900088461432   F   F   F
  0.5853499423459283  0.9056699654728888  0.3035799828696355   F   F   F
  0.1229827379243592  0.8770680528378991  0.4690637757803491   T   T   T
  0.1889699655352999  0.8684199525284555  0.4248999904366499   F   F   F
  0.0944170214972438  0.9048220906676669  0.5003959554665155   T   T   T
  0.8771599872422513  0.8770998743588123  0.4630400055861230   F   F   F
  0.8692583317093666  0.8122404135768194  0.5074640546729703   T   T   T
  0.9061099421429688  0.9056999801900858  0.4318699782745128   F   F   F
  0.8771578624298810  0.1227510658979550  0.4690345050629191   T   T   T
  0.8108900556777954  0.1317699537056853  0.4249699909396796   F   F   F
  0.9061836177784095  0.0944174378471359  0.5001921940018719   T   T   T
  0.1229699577146093  0.1227599514294582  0.4630500275075633   F   F   F
  0.1312198525457839  0.1884998491233733  0.5072825639747598   T   T   T
  0.0940299593240539  0.0941899640015720  0.4318799492921599   F   F   F
  0.1881419854761599  0.1309239885865169  0.5073893366549098   T   T   T
  0.1316399591170239  0.8111699325344546  0.4249099869061936   F   F   F
  0.8116700648001381  0.8691523624488555  0.5073525742128983   T   T   T
  0.8681999814079902  0.1890199616758323  0.4249699909396796   F   F   F
  0.3958438428406125  0.1868376814317864  0.6135404361587624   T   T   T
  0.3972999767134198  0.8111600825533571  0.3187400078806135   F   F   F
  0.8054399703843080  0.5994832531323970  0.6150982398968898   T   T   T
  0.6027298567156549  0.1889299759467349  0.3186100033440979   F   F   F
  0.1884260082386967  0.3978084033507509  0.6132088233781150   T   T   T
  0.6037509425514278  0.8118824267728131  0.6173813925572589   T   T   T
  0.8108099748118320  0.3973699848102328  0.3186700073775839   F   F   F
  0.1889599640134421  0.6025699804823930  0.3186999965505422   F   F   F
  0.4131843704719428  0.9630320824448186  0.5380172399117191   T   T   T
  0.9669799446663490  0.5900400037011977  0.3928000140790573   F   F   F
  0.5900263367564687  0.0316843700304976  0.5393390361399167   T   T   T
  0.0329099604457710  0.4095099502226631  0.3926599876211014   F   F   F
  0.4098799735671435  0.0329499657587320  0.3927699994541953   F   F   F
  0.0306480476872553  0.5875998523502816  0.5386528563904435   T   T   T
  0.5905799759932151  0.9671599140375449  0.3926399946820140   F   F   F
  0.9622871489232958  0.4108539457454886  0.5385359797575376   T   T   T
  0.6811019761570669  0.4077451066651624  0.6532128174158516   T   T   T
  0.4063707718789276  0.3144263450775552  0.6792809785861220   T   T   T
  0.3145876593044930  0.5915229375617611  0.6529164677372858   T   T   T
  0.5876093026902008  0.6817126974107900  0.6815220068923138   T   T   T
  0.6797511686767453  0.5874629971960798  0.6812606842193409   T   T   T
  0.5884635193627130  0.3138901999312458  0.6532730452449349   T   T   T
  0.3143935697831652  0.4090562137548761  0.6789807920393075   T   T   T
  0.4090846912379280  0.6834514109938494  0.6530432147860422   T   T   T
  0.9670599712557220  0.6831899456087029  0.4298999922294087   F   F   F
  0.9637300601573797  0.3192011990450324  0.5007238398268865   T   T   T
  0.3167899832873005  0.0328999650503263  0.4298700285083470   F   F   F
  0.0333697440784072  0.6790143618279648  0.5007474524272316   T   T   T
  0.6832299607831303  0.9670800020905759  0.4298599556831064   F   F   F
  0.0329799569504345  0.3167899688084432  0.4298900212117616   F   F   F
  0.3202242775010076  0.9646120281044616  0.5007342890904767   T   T   T
  0.6809016315694376  0.0335283036527948  0.5012329069046044   T   T   T
  0.9096699436413047  0.4669199571687415  0.3392199462189254   F   F   F
  0.4663889257018461  0.0885298601502583  0.5929063056898709   T   T   T
  0.0902399658410928  0.5328499334078600  0.3393099905648427   F   F   F
  0.5330370684966635  0.9059783122458999  0.5939313745002138   T   T   T
  0.9044578735370735  0.5314415728486042  0.5936294974901307   T   T   T
  0.5329899688575424  0.0902999834187455  0.3392399900618130   F   F   F
  0.0883409968754322  0.4663449930412471  0.5928793153409024   T   T   T
  0.4671899777024677  0.9096699731206144  0.3393499509911067   F   F   F
  0.1832499332311031  0.9097499621531924  0.4528199785700764   F   F   F
  0.9101616160364694  0.8172620610022421  0.4793471373844668   T   T   T
  0.8167599891111053  0.0902699616177927  0.4528499931949383   F   F   F
  0.0904779986304042  0.1832693080634091  0.4791691535937785   T   T   T
  0.1828720652445156  0.0898206215688056  0.4793227342592941   T   T   T
  0.0903099544465960  0.8168399672559090  0.4528100075524364   F   F   F
  0.8167978810954969  0.9097205522270323  0.4791724982428712   T   T   T
  0.9096400176113946  0.1831499587304890  0.4528300002558581   F   F   F
  0.4651379499671378  0.1812097052186582  0.6303028588638360   T   T   T
  0.4670399876115141  0.8167899570131922  0.3021700010844199   F   F   F
  0.8158294399981527  0.5318454607986179  0.6325995040287344   T   T   T
  0.5329900271961279  0.1832399777336917  0.3021000005813903   F   F   F
  0.1826997878933873  0.4676969804172158  0.6295677446668253   T   T   T
  0.5335764184797169  0.8191851865167711  0.6335237504679859   T   T   T
  0.8166599396873195  0.4671499363521789  0.3021399864595580   F   F   F
  0.1830199668353174  0.5329300185958061  0.3020699859565354   F   F   F
  0.5005638814191106  0.9966403911987703  0.5679637747650300   T   T   T
  0.9998001104962455  0.4998100061930302  0.3659399797637946   F   F   F
  0.5001999145682703  0.0001199699448620  0.3660599878307664   F   F   F
  0.9958490195204951  0.4990989934954871  0.5679883693443180   T   T   T
  0.7497440228829351  0.4954311834305439  0.6700307060024435   T   T   T
  0.4992423991589786  0.2448716893865433  0.6688211492397774   T   T   T
  0.2455227923066520  0.5023224359863999  0.6681844722951141   T   T   T
  0.4959515999774547  0.7522533496325889  0.6705273724985398   T   T   T
  0.0000499550264408  0.7499999460236140  0.4660299850231340   F   F   F
  0.0000199550513571  0.2495999508887721  0.4659699553020786   F   F   F
  0.2503199564111185  0.9999799753682908  0.4660199631016866   F   F   F
  0.7499199471599240  0.9999599392890062  0.4659899991449663   F   F   F
  0.3881231938343896  0.8475295631898783  0.5564807705650630   T   T   T
  0.8531799639073867  0.6162999339566753  0.3730299756686364   F   F   F
  0.6148433216481284  0.1461685570431257  0.5588485397976349   T   T   T
  0.5406539122848395  0.9180631095212328  0.4898536060913309   T   T   T
  0.5797246229448274  0.8748936861868375  0.5243415596380420   T   T   T
  0.6395542962774305  0.8833409752642228  0.4899464486023730   T   T   T
  0.1468499666158181  0.3834599558056411  0.3729099676016645   F   F   F
  0.9194899916037684  0.4665899557107807  0.4372900342249082   F   F   F
  0.8707499557002052  0.4070499938773651  0.4092100014782076   F   F   F
  0.8927499640231389  0.3681899662750254  0.4473500166276736   F   F   F
  0.3832599896028768  0.1463999897939772  0.3727599701260615   F   F   F
  0.1457687482494381  0.6103446747481609  0.5578883452442537   T   T   T
  0.6170599183458307  0.8535899790102235  0.3727000167607102   F   F   F
  0.5333299576878971  0.0805199635190590  0.4373099762601953   F   F   F
  0.5929099377037517  0.1292699676605764  0.4092100014782076   F   F   F
  0.6317399131614891  0.1072299610269667  0.4473500166276736   F   F   F
  0.8468559321590533  0.3853386277695361  0.5569952206729607   T   T   T
  0.0773931008266571  0.4590192371762149  0.4888263263531847   T   T   T
  0.1189212922750211  0.4254078882617708  0.5245836782080729   T   T   T
  0.1148228248192110  0.3613971572558709  0.4912996063432657   T   T   T
  0.7209826733074800  0.3914404094422116  0.6054978762983668   T   T   T
  0.3698703256381023  0.2562364877383644  0.7216499461741697   T   T   T
  0.4741996303574126  0.4311982404710491  0.6388849539820504   T   T   T
  0.4161022821263417  0.3671946646614033  0.6158719418377102   T   T   T
  0.3788002584498569  0.4622226183599260  0.6264518372660761   T   T   T
  0.2783428883281581  0.6060394357546942  0.6046086775227651   T   T   T
  0.6168178579831076  0.7330714156941914  0.7262328387800081   T   T   T
  0.5249314244208633  0.5762312752545539  0.6364609187632519   T   T   T
  0.5934961295847896  0.6353344072153548  0.6160726836776860   T   T   T
  0.6201628710365781  0.5376405853877516  0.6275282818639033   T   T   T
  0.7323898970253245  0.6148745831936608  0.7258973048764618   T   T   T
  0.6048970501749718  0.2748999620818444  0.6053885166005324   T   T   T
  0.5650841139686043  0.4442865293081847  0.7038247254159767   T   T   T
  0.5731581975929015  0.3438022659970268  0.7150000121451900   T   T   T
  0.6575888286670809  0.4072759590082788  0.7166186863087128   T   T   T
  0.2541776220553197  0.3751493383042347  0.7212611675803832   T   T   T
  0.3961147479037532  0.7208065701142443  0.6048363575953100   T   T   T
  0.4420391770556087  0.5694804407591031  0.7046591861889380   T   T   T
  0.4045256336289287  0.6624915937078825  0.7166942017430228   T   T   T
  0.3409222592113280  0.5781810581208749  0.7148403268545931   T   T   T
  0.8532399802950223  0.7326099632527558  0.4194299778261126   F   F   F
  0.0806399556809438  0.5717199989355919  0.4526799773283585   F   F   F
  0.1292099483608240  0.6419699725429879  0.4288299915092253   F   F   F
  0.1072199645967515  0.5465799957606450  0.4132800033211694   F   F   F
  0.8478863007080982  0.2713229678637015  0.5099073632481801   T   T   T
  0.2668399705035043  0.1463499600316709  0.4192399944723419   F   F   F
  0.4283199326675700  0.9193000203705921  0.4526999702674388   F   F   F
  0.3580499744155716  0.8707699211508171  0.4288599552302870   F   F   F
  0.4534599306265861  0.8927500694300292  0.4132999708083531   F   F   F
  0.1499191639933255  0.7239394303920472  0.5106850428503410   T   T   T
  0.9167122555669464  0.5539896287889837  0.4832522563345541   T   T   T
  0.8748362533844135  0.6440279124341304  0.4962884495739172   T   T   T
  0.8809662295035438  0.5619688236051567  0.5223566215832496   T   T   T
  0.7331499652377360  0.8535100006308909  0.4192399944723419   F   F   F
  0.1469199567716046  0.2674299804477229  0.4194200068084726   F   F   F
  0.2723327922423565  0.8490093315472366  0.5101482395854193   T   T   T
  0.4441615640827258  0.0796066040451345  0.4824485898341145   T   T   T
  0.3584615642934953  0.1235011588123678  0.4986516911434061   T   T   T
  0.4443586157743940  0.1116173062169284  0.5222475685880726   T   T   T
  0.7283412705569854  0.1488914517819603  0.5115294985936918   T   T   T
  0.8834299616641843  0.3531199609795976  0.3589699919259317   F   F   F
  0.9667099673750599  0.5805800496249276  0.2946900167862694   F   F   F
  0.9070799702248564  0.6292299242409953  0.3228000134897044   F   F   F
  0.8682799848072378  0.6071999892070750  0.2846500018706877   F   F   F
  0.3522999294300675  0.1140099480081602  0.5730799816507925   F   F   F
  0.1168399645923301  0.6463299969463776  0.3592900052681145   F   F   F
  0.0331599711109760  0.4192299782382918  0.2946900167862694   F   F   F
  0.0928199616815704  0.3707199512982697  0.3227699986291768   F   F   F
  0.1317399833939561  0.3927499816342603  0.2846300089316074   F   F   F
  0.6486808112910153  0.8785494295781263  0.5755964426093615   T   T   T
  0.4209360902892371  0.9650557516684994  0.6410466212939431   T   T   T
  0.3729733165934566  0.9132814430481877  0.6103618542847661   T   T   T
  0.3894449088682315  0.8666603380658969  0.6475320083485689   T   T   T
  0.8713327353484014  0.6428871963389394  0.5728615342122523   T   T   T
  0.9695377527882379  0.4247989569698956  0.6399957439024087   T   T   T
  0.9105054308450147  0.3709977394504739  0.6132080780664597   T   T   T
  0.8729887904914994  0.3957835481932899  0.6513190708248033   T   T   T
  0.6468199902017631  0.1165299749902431  0.3590100030203303   F   F   F
  0.1142199423087078  0.3512899486371523  0.5737900088381878   F   F   F
  0.3535399641831063  0.8832899431701620  0.3593299654587128   F   F   F
  0.2326999603803301  0.8835499468702963  0.4072499864507364   F   F   F
  0.8848404540367307  0.7695438404313139  0.5254232704574416   T   T   T
  0.9667899053333429  0.9282299613984648  0.4337300288422270   F   F   F
  0.9071599378348907  0.8580200511238658  0.4142899747916289   F   F   F
  0.8682799021532261  0.9533398874457575  0.4231299842148530   F   F   F
  0.7667899469521444  0.1169099651797367  0.4074599625079216   F   F   F
  0.1161897428056709  0.2319784124964359  0.5250348502186519   T   T   T
  0.0333199538696292  0.0717199702652920  0.4337799857380347   F   F   F
  0.0929899733246629  0.1419099678799611  0.4143300113379311   F   F   F
  0.1318199525382155  0.0465299682036360  0.4230899983366854   F   F   F
  0.2310006394350920  0.1155315175797112  0.5253045917889970   T   T   T
  0.1164299621036093  0.7675100151194272  0.4072499864507364   F   F   F
  0.0395006860460460  0.9388090364519858  0.4980554111335877   T   T   T
  0.0816618923736375  0.8549209891866656  0.5160572363217044   T   T   T
  0.1383096436515465  0.9426193531098745  0.5117896767954487   T   T   T
  0.7682646180104997  0.8843548231528748  0.5251152862983153   T   T   T
  0.8831500245951034  0.2330899872461529  0.4074499660383779   F   F   F
  0.9605750466136319  0.0597071773331595  0.4975277392420367   T   T   T
  0.9199975837330617  0.1440136222351526  0.5158618507332340   T   T   T
  0.8621244903530944  0.0570833431633042  0.5117531144317928   T   T   T
  0.3513083519762574  0.2301726932900731  0.6195822041496434   T   T   T
  0.5728925527755204  0.0487316850259671  0.6489592126723426   T   T   T
  0.6173617172468113  0.1400324603879965  0.6398541794632360   T   T   T
  0.6171621763337009  0.0623669463743900  0.6113913174163147   T   T   T
  0.3531699611275556  0.7674599540730895  0.3126800016015494   F   F   F
  0.5805699620580143  0.9281799495897545  0.2793099937966659   F   F   F
  0.6293100162466558  0.8580099595712483  0.3031400121286154   F   F   F
  0.6072299767288811  0.9533300260720026  0.3187099930200858   F   F   F
  0.7606226660520177  0.6423934086206525  0.6212577434269378   T   T   T
  0.6468399758234540  0.2326199811789138  0.3125300041259536   F   F   F
  0.4194599601005606  0.0717499840381066  0.2793299610481839   F   F   F
  0.3707899731398996  0.1419999820379729  0.3031799980067831   F   F   F
  0.3928299444423899  0.0466299731223714  0.3187199894896295   F   F   F
  0.2327149825823588  0.3541672747536689  0.6191327724712283   T   T   T
  0.0556559293984368  0.5750048674414139  0.6503456478725514   T   T   T
  0.1411675913299592  0.6224249755516177  0.6361072650227252   T   T   T
  0.0559718668882123  0.6147390530429531  0.6115326758529380   T   T   T
  0.6484824905181427  0.7701194023469173  0.6247534444029899   T   T   T
  0.7667000869539891  0.3535899625282113  0.3127300091654988   F   F   F
  0.2330199698986632  0.6464099659374440  0.3127199872440514   F   F   F
  0.4581932521948744  0.5293457053013368  0.8896362896743913   T   T   T
  0.5022636887440443  0.5211308743458551  0.9278315339520223   T   T   T
  0.5220116316590907  0.4483550432308051  0.8982655326019858   T   T   T
  0.5616273497473772  0.5454999900372993  0.8942932362138496   T   T   T
  0.4799761580374584  0.8577244402083575  0.7100031566815606   T   T   T
  0.4846501581803224  0.7821282826107563  0.2838693134437094   F   F   F
  0.1824025644437693  0.5748599941554529  0.7113481237301806   T   T   T
  0.2175383428693678  0.5151748424664930  0.2837381266495669   F   F   F
  0.8542011188688047  0.4830703507222942  0.7100685212878528   T   T   T
  0.7820446172962932  0.4850492438261327  0.2838854817753571   F   F   F
  0.5720184225491417  0.1837739896694346  0.7123105924713953   T   T   T
  0.5152910799209494  0.2179495779374960  0.2838455797953827   F   F   F
  0.4575107937893263  0.8056038388910002  0.7069818344613280   T   T   T
  0.1760056689209425  0.5222812652936104  0.7026644738228097   T   T   T
  0.8046737627847549  0.4563110282496042  0.7059421840191511   T   T   T
  0.5199748450115353  0.1759975745783051  0.7032940020061319   T   T   T

  0.00000000E+00  0.00000000E+00  0.00000000E+00
  0.00000000E+00  0.00000000E+00  0.00000000E+00
  0.00000000E+00  0.00000000E+00  0.00000000E+00
  0.00000000E+00  0.00000000E+00  0.00000000E+00
  0.00000000E+00  0.00000000E+00  0.00000000E+00
  0.00000000E+00  0.00000000E+00  0.00000000E+00
  0.00000000E+00  0.00000000E+00  0.00000000E+00
  0.00000000E+00  0.00000000E+00  0.00000000E+00
  0.00000000E+00  0.00000000E+00  0.00000000E+00
  0.00000000E+00  0.00000000E+00  0.00000000E+00
  0.00000000E+00  0.00000000E+00  0.00000000E+00
  0.00000000E+00  0.00000000E+00  0.00000000E+00
  0.00000000E+00  0.00000000E+00  0.00000000E+00
  0.00000000E+00  0.00000000E+00  0.00000000E+00
  0.00000000E+00  0.00000000E+00  0.00000000E+00
  0.00000000E+00  0.00000000E+00  0.00000000E+00
  0.00000000E+00  0.00000000E+00  0.00000000E+00
  0.00000000E+00  0.00000000E+00  0.00000000E+00
  0.00000000E+00  0.00000000E+00  0.00000000E+00
  0.00000000E+00  0.00000000E+00  0.00000000E+00
  0.00000000E+00  0.00000000E+00  0.00000000E+00
  0.00000000E+00  0.00000000E+00  0.00000000E+00
  0.00000000E+00  0.00000000E+00  0.00000000E+00
  0.00000000E+00  0.00000000E+00  0.00000000E+00
  0.00000000E+00  0.00000000E+00  0.00000000E+00
  0.00000000E+00  0.00000000E+00  0.00000000E+00
  0.00000000E+00  0.00000000E+00  0.00000000E+00
  0.00000000E+00  0.00000000E+00  0.00000000E+00
  0.00000000E+00  0.00000000E+00  0.00000000E+00
  0.00000000E+00  0.00000000E+00  0.00000000E+00
  0.00000000E+00  0.00000000E+00  0.00000000E+00
  0.00000000E+00  0.00000000E+00  0.00000000E+00
  0.00000000E+00  0.00000000E+00  0.00000000E+00
  0.00000000E+00  0.00000000E+00  0.00000000E+00
  0.00000000E+00  0.00000000E+00  0.00000000E+00
  0.00000000E+00  0.00000000E+00  0.00000000E+00
  0.00000000E+00  0.00000000E+00  0.00000000E+00
  0.00000000E+00  0.00000000E+00  0.00000000E+00
  0.00000000E+00  0.00000000E+00  0.00000000E+00
  0.00000000E+00  0.00000000E+00  0.00000000E+00
  0.00000000E+00  0.00000000E+00  0.00000000E+00
  0.00000000E+00  0.00000000E+00  0.00000000E+00
  0.00000000E+00  0.00000000E+00  0.00000000E+00
  0.00000000E+00  0.00000000E+00  0.00000000E+00
  0.00000000E+00  0.00000000E+00  0.00000000E+00
  0.00000000E+00  0.00000000E+00  0.00000000E+00
  0.00000000E+00  0.00000000E+00  0.00000000E+00
  0.00000000E+00  0.00000000E+00  0.00000000E+00
  0.00000000E+00  0.00000000E+00  0.00000000E+00
  0.00000000E+00  0.00000000E+00  0.00000000E+00
  0.00000000E+00  0.00000000E+00  0.00000000E+00
  0.00000000E+00  0.00000000E+00  0.00000000E+00
  0.00000000E+00  0.00000000E+00  0.00000000E+00
  0.00000000E+00  0.00000000E+00  0.00000000E+00
  0.00000000E+00  0.00000000E+00  0.00000000E+00
  0.00000000E+00  0.00000000E+00  0.00000000E+00
  0.00000000E+00  0.00000000E+00  0.00000000E+00
  0.00000000E+00  0.00000000E+00  0.00000000E+00
  0.00000000E+00  0.00000000E+00  0.00000000E+00
  0.00000000E+00  0.00000000E+00  0.00000000E+00
  0.00000000E+00  0.00000000E+00  0.00000000E+00
  0.00000000E+00  0.00000000E+00  0.00000000E+00
  0.00000000E+00  0.00000000E+00  0.00000000E+00
  0.00000000E+00  0.00000000E+00  0.00000000E+00
  0.00000000E+00  0.00000000E+00  0.00000000E+00
  0.00000000E+00  0.00000000E+00  0.00000000E+00
  0.00000000E+00  0.00000000E+00  0.00000000E+00
  0.00000000E+00  0.00000000E+00  0.00000000E+00
  0.00000000E+00  0.00000000E+00  0.00000000E+00
  0.00000000E+00  0.00000000E+00  0.00000000E+00
  0.00000000E+00  0.00000000E+00  0.00000000E+00
  0.00000000E+00  0.00000000E+00  0.00000000E+00
  0.00000000E+00  0.00000000E+00  0.00000000E+00
  0.00000000E+00  0.00000000E+00  0.00000000E+00
  0.00000000E+00  0.00000000E+00  0.00000000E+00
  0.00000000E+00  0.00000000E+00  0.00000000E+00
  0.00000000E+00  0.00000000E+00  0.00000000E+00
  0.00000000E+00  0.00000000E+00  0.00000000E+00
  0.00000000E+00  0.00000000E+00  0.00000000E+00
  0.00000000E+00  0.00000000E+00  0.00000000E+00
  0.00000000E+00  0.00000000E+00  0.00000000E+00
  0.00000000E+00  0.00000000E+00  0.00000000E+00
  0.00000000E+00  0.00000000E+00  0.00000000E+00
  0.00000000E+00  0.00000000E+00  0.00000000E+00
  0.00000000E+00  0.00000000E+00  0.00000000E+00
  0.00000000E+00  0.00000000E+00  0.00000000E+00
  0.00000000E+00  0.00000000E+00  0.00000000E+00
  0.00000000E+00  0.00000000E+00  0.00000000E+00
  0.00000000E+00  0.00000000E+00  0.00000000E+00
  0.00000000E+00  0.00000000E+00  0.00000000E+00
  0.00000000E+00  0.00000000E+00  0.00000000E+00
  0.00000000E+00  0.00000000E+00  0.00000000E+00
  0.00000000E+00  0.00000000E+00  0.00000000E+00
  0.00000000E+00  0.00000000E+00  0.00000000E+00
  0.00000000E+00  0.00000000E+00  0.00000000E+00
  0.00000000E+00  0.00000000E+00  0.00000000E+00
  0.00000000E+00  0.00000000E+00  0.00000000E+00
  0.00000000E+00  0.00000000E+00  0.00000000E+00
  0.00000000E+00  0.00000000E+00  0.00000000E+00
  0.00000000E+00  0.00000000E+00  0.00000000E+00
  0.00000000E+00  0.00000000E+00  0.00000000E+00
  0.00000000E+00  0.00000000E+00  0.00000000E+00
  0.00000000E+00  0.00000000E+00  0.00000000E+00
  0.00000000E+00  0.00000000E+00  0.00000000E+00
  0.00000000E+00  0.00000000E+00  0.00000000E+00
  0.00000000E+00  0.00000000E+00  0.00000000E+00
  0.00000000E+00  0.00000000E+00  0.00000000E+00
  0.00000000E+00  0.00000000E+00  0.00000000E+00
  0.00000000E+00  0.00000000E+00  0.00000000E+00
  0.00000000E+00  0.00000000E+00  0.00000000E+00
  0.00000000E+00  0.00000000E+00  0.00000000E+00
  0.00000000E+00  0.00000000E+00  0.00000000E+00
  0.00000000E+00  0.00000000E+00  0.00000000E+00
  0.00000000E+00  0.00000000E+00  0.00000000E+00
  0.00000000E+00  0.00000000E+00  0.00000000E+00
  0.00000000E+00  0.00000000E+00  0.00000000E+00
  0.00000000E+00  0.00000000E+00  0.00000000E+00
  0.00000000E+00  0.00000000E+00  0.00000000E+00
  0.00000000E+00  0.00000000E+00  0.00000000E+00
  0.00000000E+00  0.00000000E+00  0.00000000E+00
  0.00000000E+00  0.00000000E+00  0.00000000E+00
  0.00000000E+00  0.00000000E+00  0.00000000E+00
  0.00000000E+00  0.00000000E+00  0.00000000E+00
  0.00000000E+00  0.00000000E+00  0.00000000E+00
  0.00000000E+00  0.00000000E+00  0.00000000E+00
  0.00000000E+00  0.00000000E+00  0.00000000E+00
  0.00000000E+00  0.00000000E+00  0.00000000E+00
  0.00000000E+00  0.00000000E+00  0.00000000E+00
  0.00000000E+00  0.00000000E+00  0.00000000E+00
  0.00000000E+00  0.00000000E+00  0.00000000E+00
  0.00000000E+00  0.00000000E+00  0.00000000E+00
  0.00000000E+00  0.00000000E+00  0.00000000E+00
  0.00000000E+00  0.00000000E+00  0.00000000E+00
  0.00000000E+00  0.00000000E+00  0.00000000E+00
  0.00000000E+00  0.00000000E+00  0.00000000E+00
  0.00000000E+00  0.00000000E+00  0.00000000E+00
  0.00000000E+00  0.00000000E+00  0.00000000E+00
  0.00000000E+00  0.00000000E+00  0.00000000E+00
  0.00000000E+00  0.00000000E+00  0.00000000E+00
  0.00000000E+00  0.00000000E+00  0.00000000E+00
  0.00000000E+00  0.00000000E+00  0.00000000E+00
  0.00000000E+00  0.00000000E+00  0.00000000E+00
  0.00000000E+00  0.00000000E+00  0.00000000E+00
  0.00000000E+00  0.00000000E+00  0.00000000E+00
  0.00000000E+00  0.00000000E+00  0.00000000E+00
  0.00000000E+00  0.00000000E+00  0.00000000E+00
  0.00000000E+00  0.00000000E+00  0.00000000E+00
  0.00000000E+00  0.00000000E+00  0.00000000E+00
  0.00000000E+00  0.00000000E+00  0.00000000E+00
  0.00000000E+00  0.00000000E+00  0.00000000E+00
  0.00000000E+00  0.00000000E+00  0.00000000E+00
  0.00000000E+00  0.00000000E+00  0.00000000E+00
  0.00000000E+00  0.00000000E+00  0.00000000E+00
  0.00000000E+00  0.00000000E+00  0.00000000E+00
  0.00000000E+00  0.00000000E+00  0.00000000E+00
  0.00000000E+00  0.00000000E+00  0.00000000E+00
  0.00000000E+00  0.00000000E+00  0.00000000E+00
  0.00000000E+00  0.00000000E+00  0.00000000E+00
  0.00000000E+00  0.00000000E+00  0.00000000E+00
  0.00000000E+00  0.00000000E+00  0.00000000E+00
  0.00000000E+00  0.00000000E+00  0.00000000E+00
  0.00000000E+00  0.00000000E+00  0.00000000E+00
  0.00000000E+00  0.00000000E+00  0.00000000E+00
  0.00000000E+00  0.00000000E+00  0.00000000E+00
  0.00000000E+00  0.00000000E+00  0.00000000E+00
  0.00000000E+00  0.00000000E+00  0.00000000E+00
  0.00000000E+00  0.00000000E+00  0.00000000E+00
  0.00000000E+00  0.00000000E+00  0.00000000E+00